(set-info :smt-lib-version 2.6)
(set-logic QF_S)
(set-info :source |
Generated by: Hung-En Wang, Tzung-Lin Tsai, Chun-Han Lin, Fang Yu, and Jie-Hong R. Jiang
Generated on: 2019-02-28
Generator: Stranger
Application: Security analysis of string manipulating web applications
Target solver: CVC4, Norn, Z3-str2
Publication:
Hung-En Wang, Tzung-Lin Tsai, Chun-Han Lin, Fang Yu, Jie-Hong R. Jiang:
String Analysis via Automata Manipulation with Logic Circuit Representation. CAV (1) 2016: 241-260.
|)
(set-info :license "https://creativecommons.org/licenses/by/4.0/")
(set-info :category "industrial")
(set-info :status unknown)

(declare-fun sigmaStar_0 () String)
(declare-fun sigmaStar_1 () String)
(declare-fun sigmaStar_2 () String)
(declare-fun sigmaStar_3 () String)
(declare-fun sigmaStar_4 () String)
(declare-fun literal_5 () String)
(declare-fun x_7 () String)
(declare-fun literal_6 () String)
(declare-fun x_9 () String)
(declare-fun literal_10 () String)
(declare-fun x_12 () String)
(declare-fun literal_11 () String)
(declare-fun x_13 () String)
(declare-fun x_15 () String)
(declare-fun x_14 () String)
(declare-fun literal_8 () String)
(declare-fun x_16 () String)
(declare-fun literal_17 () String)
(declare-fun x_19 () String)
(declare-fun literal_18 () String)
(declare-fun x_20 () String)
(declare-fun x_36 () String)
(declare-fun epsilon () String)
(declare-fun literal_21 () String)
(declare-fun literal_22 () String)
(declare-fun literal_23 () String)
(assert (= literal_5 "\u{49}\u{74}\u{65}\u{6d}\u{20}\u{77}\u{61}\u{73}\u{20}\u{61}\u{64}\u{64}\u{65}\u{64}\u{2c}\u{20}\u{61}\u{6e}\u{64}\u{20}\u{61}\u{20}\u{6e}\u{65}\u{77}\u{20}\u{63}\u{61}\u{74}\u{65}\u{67}\u{6f}\u{72}\u{79}\u{20}\u{77}\u{61}\u{73}\u{20}\u{63}\u{72}\u{65}\u{61}\u{74}\u{65}\u{64}\u{2e}\u{20}\u{3c}\u{61}\u{20}\u{68}\u{72}\u{65}\u{66}\u{3d}\u{22}\u{69}\u{6e}\u{64}\u{65}\u{78}\u{2e}\u{70}\u{68}\u{70}\u{3f}\u{61}\u{63}\u{74}\u{69}\u{6f}\u{6e}\u{3d}\u{63}\u{61}\u{74}\u{65}\u{67}\u{6f}\u{72}\u{79}\u{65}\u{64}\u{69}\u{74}\u{26}\u{61}\u{6d}\u{70}\u{3b}\u{62}\u{6c}\u{6f}\u{67}\u{69}\u{64}\u{3d}"))
(assert (= x_7 (str.++ literal_5 sigmaStar_2)))
(assert (= literal_6 "\u{49}\u{74}\u{65}\u{6d}\u{20}\u{77}\u{61}\u{73}\u{20}\u{61}\u{64}\u{64}\u{65}\u{64}\u{2c}\u{20}\u{61}\u{6e}\u{64}\u{20}\u{61}\u{20}\u{6e}\u{65}\u{77}\u{20}\u{63}\u{61}\u{74}\u{65}\u{67}\u{6f}\u{72}\u{79}\u{20}\u{77}\u{61}\u{73}\u{20}\u{63}\u{72}\u{65}\u{61}\u{74}\u{65}\u{64}\u{2e}\u{20}\u{3c}\u{61}\u{20}\u{68}\u{72}\u{65}\u{66}\u{3d}\u{22}\u{69}\u{6e}\u{64}\u{65}\u{78}\u{2e}\u{70}\u{68}\u{70}\u{3f}\u{61}\u{63}\u{74}\u{69}\u{6f}\u{6e}\u{3d}\u{63}\u{61}\u{74}\u{65}\u{67}\u{6f}\u{72}\u{79}\u{65}\u{64}\u{69}\u{74}\u{26}\u{61}\u{6d}\u{70}\u{3b}\u{62}\u{6c}\u{6f}\u{67}\u{69}\u{64}\u{3d}"))
(assert (= x_9 (str.++ literal_6 sigmaStar_1)))
(assert (= literal_10 "\u{26}\u{61}\u{6d}\u{70}\u{3b}\u{63}\u{61}\u{74}\u{69}\u{64}\u{3d}"))
(assert (= x_12 (str.++ x_7 literal_10)))
(assert (= literal_11 "\u{26}\u{61}\u{6d}\u{70}\u{3b}\u{63}\u{61}\u{74}\u{69}\u{64}\u{3d}"))
(assert (= x_13 (str.++ x_9 literal_11)))
(assert (= x_15 (str.++ x_12 sigmaStar_2)))
(assert (= literal_8 "\u{63}\u{61}\u{74}\u{69}\u{64}"))
(assert (or (= x_14 literal_8) (= x_14 sigmaStar_3)))
(assert (= x_16 (str.++ x_13 x_14)))
(assert (= literal_17 "\u{22}\u{20}\u{6f}\u{6e}\u{63}\u{6c}\u{69}\u{63}\u{6b}\u{3d}\u{22}\u{69}\u{66}\u{20}\u{28}\u{65}\u{76}\u{65}\u{6e}\u{74}\u{20}\u{26}\u{61}\u{6d}\u{70}\u{3b}\u{26}\u{61}\u{6d}\u{70}\u{3b}\u{20}\u{65}\u{76}\u{65}\u{6e}\u{74}\u{2e}\u{70}\u{72}\u{65}\u{76}\u{65}\u{6e}\u{74}\u{44}\u{65}\u{66}\u{61}\u{75}\u{6c}\u{74}\u{29}\u{20}\u{65}\u{76}\u{65}\u{6e}\u{74}\u{2e}\u{70}\u{72}\u{65}\u{76}\u{65}\u{6e}\u{74}\u{44}\u{65}\u{66}\u{61}\u{75}\u{6c}\u{74}\u{28}\u{29}\u{3b}\u{20}\u{77}\u{69}\u{6e}\u{64}\u{6f}\u{77}\u{2e}\u{6f}\u{70}\u{65}\u{6e}\u{28}\u{74}\u{68}\u{69}\u{73}\u{2e}\u{68}\u{72}\u{65}\u{66}\u{29}\u{3b}\u{20}\u{72}\u{65}\u{74}\u{75}\u{72}\u{6e}\u{20}\u{66}\u{61}\u{6c}\u{73}\u{65}\u{3b}\u{22}\u{20}\u{74}\u{69}\u{74}\u{6c}\u{65}\u{3d}\u{22}\u{4f}\u{70}\u{65}\u{6e}\u{73}\u{20}\u{69}\u{6e}\u{20}\u{6e}\u{65}\u{77}\u{20}\u{77}\u{69}\u{6e}\u{64}\u{6f}\u{77}\u{22}\u{3e}\u{43}\u{6c}\u{69}\u{63}\u{6b}\u{20}\u{68}\u{65}\u{72}\u{65}\u{20}\u{74}\u{6f}\u{20}\u{65}\u{64}\u{69}\u{74}\u{20}\u{74}\u{68}\u{65}\u{20}\u{6e}\u{61}\u{6d}\u{65}\u{20}\u{61}\u{6e}\u{64}\u{20}\u{64}\u{65}\u{73}\u{63}\u{72}\u{69}\u{70}\u{74}\u{69}\u{6f}\u{6e}\u{20}\u{6f}\u{66}\u{20}\u{74}\u{68}\u{65}\u{20}\u{63}\u{61}\u{74}\u{65}\u{67}\u{6f}\u{72}\u{79}\u{2e}\u{3c}\u{2f}\u{61}\u{3e}"))
(assert (= x_19 (str.++ x_15 literal_17)))
(assert (= literal_18 "\u{22}\u{20}\u{6f}\u{6e}\u{63}\u{6c}\u{69}\u{63}\u{6b}\u{3d}\u{22}\u{69}\u{66}\u{20}\u{28}\u{65}\u{76}\u{65}\u{6e}\u{74}\u{20}\u{26}\u{61}\u{6d}\u{70}\u{3b}\u{26}\u{61}\u{6d}\u{70}\u{3b}\u{20}\u{65}\u{76}\u{65}\u{6e}\u{74}\u{2e}\u{70}\u{72}\u{65}\u{76}\u{65}\u{6e}\u{74}\u{44}\u{65}\u{66}\u{61}\u{75}\u{6c}\u{74}\u{29}\u{20}\u{65}\u{76}\u{65}\u{6e}\u{74}\u{2e}\u{70}\u{72}\u{65}\u{76}\u{65}\u{6e}\u{74}\u{44}\u{65}\u{66}\u{61}\u{75}\u{6c}\u{74}\u{28}\u{29}\u{3b}\u{20}\u{77}\u{69}\u{6e}\u{64}\u{6f}\u{77}\u{2e}\u{6f}\u{70}\u{65}\u{6e}\u{28}\u{74}\u{68}\u{69}\u{73}\u{2e}\u{68}\u{72}\u{65}\u{66}\u{29}\u{3b}\u{20}\u{72}\u{65}\u{74}\u{75}\u{72}\u{6e}\u{20}\u{66}\u{61}\u{6c}\u{73}\u{65}\u{3b}\u{22}\u{20}\u{74}\u{69}\u{74}\u{6c}\u{65}\u{3d}\u{22}\u{4f}\u{70}\u{65}\u{6e}\u{73}\u{20}\u{69}\u{6e}\u{20}\u{6e}\u{65}\u{77}\u{20}\u{77}\u{69}\u{6e}\u{64}\u{6f}\u{77}\u{22}\u{3e}\u{43}\u{6c}\u{69}\u{63}\u{6b}\u{20}\u{68}\u{65}\u{72}\u{65}\u{20}\u{74}\u{6f}\u{20}\u{65}\u{64}\u{69}\u{74}\u{20}\u{74}\u{68}\u{65}\u{20}\u{6e}\u{61}\u{6d}\u{65}\u{20}\u{61}\u{6e}\u{64}\u{20}\u{64}\u{65}\u{73}\u{63}\u{72}\u{69}\u{70}\u{74}\u{69}\u{6f}\u{6e}\u{20}\u{6f}\u{66}\u{20}\u{74}\u{68}\u{65}\u{20}\u{63}\u{61}\u{74}\u{65}\u{67}\u{6f}\u{72}\u{79}\u{2e}\u{3c}\u{2f}\u{61}\u{3e}"))
(assert (= x_20 (str.++ x_16 literal_18)))
(assert (= epsilon ""))
(assert (= literal_21 "\u{43}\u{6f}\u{75}\u{6c}\u{64}\u{20}\u{6e}\u{6f}\u{74}\u{20}\u{63}\u{72}\u{65}\u{61}\u{74}\u{65}\u{20}\u{6e}\u{65}\u{77}\u{20}\u{63}\u{61}\u{74}\u{65}\u{67}\u{6f}\u{72}\u{79}"))
(assert (= literal_22 "\u{53}\u{6f}\u{6d}\u{65}\u{74}\u{68}\u{69}\u{6e}\u{67}\u{20}\u{77}\u{65}\u{6e}\u{74}\u{20}\u{77}\u{72}\u{6f}\u{6e}\u{67}"))
(assert (= literal_23 "\u{53}\u{6f}\u{6d}\u{65}\u{74}\u{68}\u{69}\u{6e}\u{67}\u{20}\u{77}\u{65}\u{6e}\u{74}\u{20}\u{77}\u{72}\u{6f}\u{6e}\u{67}"))
(assert (or (= x_36 epsilon) (= x_36 x_20) (= x_36 literal_21) (= x_36 x_19) (= x_36 sigmaStar_2) (= x_36 literal_22) (= x_36 literal_23)))
(assert (str.in_re x_36 (re.++ (re.* re.allchar) (re.++ (str.to_re "\u{5c}\u{3c}\u{53}\u{43}\u{52}\u{49}\u{50}\u{54}") (re.* re.allchar)))))
(check-sat)
(exit)
